c Command line: hgen8 190 80
p cnf 190 296
46 45 41 106 0
78 65 131 162 0
102 37 136 54 0
176 48 158 72 0
26 5 130 151 0
42 56 12 188 0
168 104 77 51 0
115 128 117 7 0
172 14 184 47 0
141 137 87 163 0
114 76 82 101 0
10 166 90 155 0
35 103 148 124 0
142 52 132 105 0
67 66 55 36 0
33 53 83 144 0
71 189 8 109 0
96 154 68 43 0
138 9 27 34 0
86 139 58 156 0
25 50 177 140 0
73 44 173 99 0
13 80 28 93 0
62 112 94 39 0
11 143 110 180 0
2 182 146 129 0
161 181 111 169 0
100 89 186 175 0
79 85 152 21 0
23 164 40 60 0
32 24 75 119 0
69 113 123 135 0
81 122 57 29 0
91 49 70 20 0
150 95 120 17 0
153 159 31 183 0
107 16 147 165 0
108 134 61 30 0
74 59 171 38 0
-2 -5 0
-7 -8 0
-7 -9 0
-7 -10 0
-8 -9 0
-8 -10 0
-9 -10 0
-11 -12 0
-11 -13 0
-11 -14 0
-12 -13 0
-12 -14 0
-13 -14 0
-16 -17 0
-16 -20 0
-17 -20 0
-21 -23 0
-21 -24 0
-21 -25 0
-23 -24 0
-23 -25 0
-24 -25 0
-26 -27 0
-26 -28 0
-26 -29 0
-26 -30 0
-27 -28 0
-27 -29 0
-27 -30 0
-28 -29 0
-28 -30 0
-29 -30 0
-31 -32 0
-31 -33 0
-31 -34 0
-31 -35 0
-32 -33 0
-32 -34 0
-32 -35 0
-33 -34 0
-33 -35 0
-34 -35 0
-36 -37 0
-36 -38 0
-36 -39 0
-36 -40 0
-37 -38 0
-37 -39 0
-37 -40 0
-38 -39 0
-38 -40 0
-39 -40 0
-41 -42 0
-41 -43 0
-41 -44 0
-41 -45 0
-42 -43 0
-42 -44 0
-42 -45 0
-43 -44 0
-43 -45 0
-44 -45 0
-46 -47 0
-46 -48 0
-46 -49 0
-46 -50 0
-47 -48 0
-47 -49 0
-47 -50 0
-48 -49 0
-48 -50 0
-49 -50 0
-51 -52 0
-51 -53 0
-51 -54 0
-51 -55 0
-52 -53 0
-52 -54 0
-52 -55 0
-53 -54 0
-53 -55 0
-54 -55 0
-56 -57 0
-56 -58 0
-56 -59 0
-56 -60 0
-57 -58 0
-57 -59 0
-57 -60 0
-58 -59 0
-58 -60 0
-59 -60 0
-61 -62 0
-61 -65 0
-62 -65 0
-66 -67 0
-66 -68 0
-66 -69 0
-66 -70 0
-67 -68 0
-67 -69 0
-67 -70 0
-68 -69 0
-68 -70 0
-69 -70 0
-71 -72 0
-71 -73 0
-71 -74 0
-71 -75 0
-72 -73 0
-72 -74 0
-72 -75 0
-73 -74 0
-73 -75 0
-74 -75 0
-76 -77 0
-76 -78 0
-76 -79 0
-76 -80 0
-77 -78 0
-77 -79 0
-77 -80 0
-78 -79 0
-78 -80 0
-79 -80 0
-81 -82 0
-81 -83 0
-81 -85 0
-82 -83 0
-82 -85 0
-83 -85 0
-86 -87 0
-86 -89 0
-86 -90 0
-87 -89 0
-87 -90 0
-89 -90 0
-91 -93 0
-91 -94 0
-91 -95 0
-93 -94 0
-93 -95 0
-94 -95 0
-96 -99 0
-96 -100 0
-99 -100 0
-101 -102 0
-101 -103 0
-101 -104 0
-101 -105 0
-102 -103 0
-102 -104 0
-102 -105 0
-103 -104 0
-103 -105 0
-104 -105 0
-106 -107 0
-106 -108 0
-106 -109 0
-106 -110 0
-107 -108 0
-107 -109 0
-107 -110 0
-108 -109 0
-108 -110 0
-109 -110 0
-111 -112 0
-111 -113 0
-111 -114 0
-111 -115 0
-112 -113 0
-112 -114 0
-112 -115 0
-113 -114 0
-113 -115 0
-114 -115 0
-117 -119 0
-117 -120 0
-119 -120 0
-122 -123 0
-122 -124 0
-123 -124 0
-128 -129 0
-128 -130 0
-129 -130 0
-131 -132 0
-131 -134 0
-131 -135 0
-132 -134 0
-132 -135 0
-134 -135 0
-136 -137 0
-136 -138 0
-136 -139 0
-136 -140 0
-137 -138 0
-137 -139 0
-137 -140 0
-138 -139 0
-138 -140 0
-139 -140 0
-141 -142 0
-141 -143 0
-141 -144 0
-142 -143 0
-142 -144 0
-143 -144 0
-146 -147 0
-146 -148 0
-146 -150 0
-147 -148 0
-147 -150 0
-148 -150 0
-151 -152 0
-151 -153 0
-151 -154 0
-151 -155 0
-152 -153 0
-152 -154 0
-152 -155 0
-153 -154 0
-153 -155 0
-154 -155 0
-156 -158 0
-156 -159 0
-158 -159 0
-161 -162 0
-161 -163 0
-161 -164 0
-161 -165 0
-162 -163 0
-162 -164 0
-162 -165 0
-163 -164 0
-163 -165 0
-164 -165 0
-166 -168 0
-166 -169 0
-168 -169 0
-171 -172 0
-171 -173 0
-171 -175 0
-172 -173 0
-172 -175 0
-173 -175 0
-176 -177 0
-176 -180 0
-177 -180 0
-181 -182 0
-181 -183 0
-181 -184 0
-182 -183 0
-182 -184 0
-183 -184 0
-186 -188 0
-186 -189 0
-188 -189 0
